Flag.PeriodicSum           off       # default - off
# NOTE: No role in cluster calculations.

Num.Poles                  60
Num.Kgrid   27 27 27
Num.ij.pairs               236       # NOTE: Number of ij pairs.
Bunch.ij.pairs             96        # default - 1
# NOTE: an Optional keyword to use when the memory consumption is too large at the default setting.
# Should be same to or smaller than Num.ij.pairs.
# The smaller Bunch.ij.pairs results in smaller memory consumption with larger calculation time.

<ijpairs.cellid
1 1 -2 -2 -2
1 1 -2 -2 -1
1 1 -2 -2 0
1 1 -2 -2 1
1 1 -2 -2 2
1 1 -2 -1 -2
1 1 -2 -1 -1
1 1 -2 -1 0
1 1 -2 -1 1
1 1 -2 -1 2
1 1 -2 0 -2
1 1 -2 0 -1
1 1 -2 0 0
1 1 -2 0 1
1 1 -2 0 2
1 1 -2 1 -2
1 1 -2 1 -1
1 1 -2 1 0
1 1 -2 1 1
1 1 -2 1 2
1 1 -2 2 -2
1 1 -2 2 -1
1 1 -2 2 0
1 1 -2 2 1
1 1 -2 2 2
1 1 -1 -2 -2
1 1 -1 -2 -1
1 1 -1 -2 0
1 1 -1 -2 1
1 1 -1 -2 2
1 1 -1 -1 -2
1 1 -1 -1 -1
1 1 -1 -1 0
1 1 -1 -1 1
1 1 -1 -1 2
1 1 -1 0 -2
1 1 -1 0 -1
1 1 -1 0 0
1 1 -1 0 1
1 1 -1 0 2
1 1 -1 1 -2
1 1 -1 1 -1
1 1 -1 1 0
1 1 -1 1 1
1 1 -1 1 2
1 1 -1 2 -2
1 1 -1 2 -1
1 1 -1 2 0
1 1 -1 2 1
1 1 -1 2 2
1 1 0 -2 -2
1 1 0 -2 -1
1 1 0 -2 0
1 1 0 -2 1
1 1 0 -2 2
1 1 0 -1 -2
1 1 0 -1 -1
1 1 0 -1 0
1 1 0 -1 1
1 1 0 -1 2
1 1 0 0 -2
1 1 0 0 -1
1 2 -2 -2 -2
1 2 -2 -2 -1
1 2 -2 -2 0
1 2 -2 -2 1
1 2 -2 -2 2
1 2 -2 -1 -2
1 2 -2 -1 -1
1 2 -2 -1 0
1 2 -2 -1 1
1 2 -2 -1 2
1 2 -2 0 -2
1 2 -2 0 -1
1 2 -2 0 0
1 2 -2 0 1
1 2 -2 0 2
1 2 -2 1 -2
1 2 -2 1 -1
1 2 -2 1 0
1 2 -2 1 1
1 2 -2 1 2
1 2 -2 2 -2
1 2 -2 2 -1
1 2 -2 2 0
1 2 -2 2 1
1 2 -1 -2 -2
1 2 -1 -2 -1
1 2 -1 -2 0
1 2 -1 -2 1
1 2 -1 -2 2
1 2 -1 -1 -2
1 2 -1 -1 -1
1 2 -1 -1 0
1 2 -1 -1 1
1 2 -1 -1 2
1 2 -1 0 -2
1 2 -1 0 -1
1 2 -1 0 0
1 2 -1 0 1
1 2 -1 0 2
1 2 -1 1 -2
1 2 -1 1 -1
1 2 -1 1 0
1 2 -1 1 1
1 2 -1 1 2
1 2 -1 2 -2
1 2 -1 2 -1
1 2 -1 2 0
1 2 -1 2 1
1 2 0 -2 -2
1 2 0 -2 -1
1 2 0 -2 0
1 2 0 -2 1
1 2 0 -2 2
1 2 0 -1 -2
1 2 0 -1 -1
1 2 0 -1 0
1 2 0 -1 1
1 2 0 -1 2
1 2 0 0 -2
1 2 0 0 -1
1 2 0 0 0
1 2 0 0 1
1 2 0 0 2
1 2 0 1 -2
1 2 0 1 -1
1 2 0 1 0
1 2 0 1 1
1 2 0 1 2
1 2 0 2 -2
1 2 0 2 -1
1 2 0 2 0
1 2 0 2 1
1 2 1 -2 -2
1 2 1 -2 -1
1 2 1 -2 0
1 2 1 -2 1
1 2 1 -2 2
1 2 1 -1 -2
1 2 1 -1 -1
1 2 1 -1 0
1 2 1 -1 1
1 2 1 -1 2
1 2 1 0 -2
1 2 1 0 -1
1 2 1 0 0
1 2 1 0 1
1 2 1 0 2
1 2 1 1 -2
1 2 1 1 -1
1 2 1 1 0
1 2 1 1 1
1 2 1 1 2
1 2 1 2 -2
1 2 1 2 -1
1 2 1 2 0
1 2 1 2 1
1 2 2 -2 -2
1 2 2 -2 -1
1 2 2 -2 0
1 2 2 -2 1
1 2 2 -1 -2
1 2 2 -1 -1
1 2 2 -1 0
1 2 2 -1 1
1 2 2 0 -2
1 2 2 0 -1
1 2 2 0 0
1 2 2 0 1
1 2 2 1 -2
1 2 2 1 -1
1 2 2 1 0
1 2 2 1 1
2 2 -2 -2 -2
2 2 -2 -2 -1
2 2 -2 -2 0
2 2 -2 -2 1
2 2 -2 -2 2
2 2 -2 -1 -2
2 2 -2 -1 -1
2 2 -2 -1 0
2 2 -2 -1 1
2 2 -2 -1 2
2 2 -2 0 -2
2 2 -2 0 -1
2 2 -2 0 0
2 2 -2 0 1
2 2 -2 0 2
2 2 -2 1 -2
2 2 -2 1 -1
2 2 -2 1 0
2 2 -2 1 1
2 2 -2 1 2
2 2 -2 2 -2
2 2 -2 2 -1
2 2 -2 2 0
2 2 -2 2 1
2 2 -2 2 2
2 2 -1 -2 -2
2 2 -1 -2 -1
2 2 -1 -2 0
2 2 -1 -2 1
2 2 -1 -2 2
2 2 -1 -1 -2
2 2 -1 -1 -1
2 2 -1 -1 0
2 2 -1 -1 1
2 2 -1 -1 2
2 2 -1 0 -2
2 2 -1 0 -1
2 2 -1 0 0
2 2 -1 0 1
2 2 -1 0 2
2 2 -1 1 -2
2 2 -1 1 -1
2 2 -1 1 0
2 2 -1 1 1
2 2 -1 1 2
2 2 -1 2 -2
2 2 -1 2 -1
2 2 -1 2 0
2 2 -1 2 1
2 2 -1 2 2
2 2 0 -2 -2
2 2 0 -2 -1
2 2 0 -2 0
2 2 0 -2 1
2 2 0 -2 2
2 2 0 -1 -2
2 2 0 -1 -1
2 2 0 -1 0
2 2 0 -1 1
2 2 0 -1 2
2 2 0 0 -2
2 2 0 0 -1
ijpairs.cellid>
<ijpairs.nocellid
1 1
1 2
ijpairs.nocellid>
