Flag.PeriodicSum           off       # default - off
# NOTE: No role in cluster calculations.

Num.Poles                  60
Num.Kgrid   24 24 24
Num.ij.pairs               688       # NOTE: Number of ij pairs.
Bunch.ij.pairs             96        # default - 1
# NOTE: an Optional keyword to use when the memory consumption is too large at the default setting.
# Should be same to or smaller than Num.ij.pairs.
# The smaller Bunch.ij.pairs results in smaller memory consumption with larger calculation time.

<ijpairs.cellid
1 1 -2 -2 0
1 1 -2 -1 -1
1 1 -2 -1 0
1 1 -2 -1 1
1 1 -2 0 -2
1 1 -2 0 -1
1 1 -2 0 0
1 1 -2 0 1
1 1 -2 0 2
1 1 -2 1 -1
1 1 -2 1 0
1 1 -2 1 1
1 1 -2 2 0
1 1 -1 -2 -1
1 1 -1 -2 0
1 1 -1 -2 1
1 1 -1 -1 -2
1 1 -1 -1 -1
1 1 -1 -1 0
1 1 -1 -1 1
1 1 -1 -1 2
1 1 -1 0 -2
1 1 -1 0 -1
1 1 -1 0 0
1 1 -1 0 1
1 1 -1 0 2
1 1 -1 1 -2
1 1 -1 1 -1
1 1 -1 1 0
1 1 -1 1 1
1 1 -1 1 2
1 1 -1 2 -1
1 1 -1 2 0
1 1 -1 2 1
1 1 0 -2 -2
1 1 0 -2 -1
1 1 0 -2 0
1 1 0 -2 1
1 1 0 -2 2
1 1 0 -1 -2
1 1 0 -1 -1
1 1 0 -1 0
1 1 0 -1 1
1 1 0 -1 2
1 1 0 0 -2
1 1 0 0 -1
1 2 -2 -2 -1
1 2 -2 -2 0
1 2 -2 -1 -2
1 2 -2 -1 -1
1 2 -2 -1 0
1 2 -2 -1 1
1 2 -2 0 -2
1 2 -2 0 -1
1 2 -2 0 0
1 2 -2 0 1
1 2 -2 1 -1
1 2 -2 1 0
1 2 -1 -2 -2
1 2 -1 -2 -1
1 2 -1 -2 0
1 2 -1 -2 1
1 2 -1 -1 -2
1 2 -1 -1 -1
1 2 -1 -1 0
1 2 -1 -1 1
1 2 -1 -1 2
1 2 -1 0 -2
1 2 -1 0 -1
1 2 -1 0 0
1 2 -1 0 1
1 2 -1 0 2
1 2 -1 1 -2
1 2 -1 1 -1
1 2 -1 1 0
1 2 -1 1 1
1 2 -1 2 -1
1 2 -1 2 0
1 2 0 -2 -2
1 2 0 -2 -1
1 2 0 -2 0
1 2 0 -2 1
1 2 0 -1 -2
1 2 0 -1 -1
1 2 0 -1 0
1 2 0 -1 1
1 2 0 -1 2
1 2 0 0 -2
1 2 0 0 -1
1 2 0 0 0
1 2 0 0 1
1 2 0 0 2
1 2 0 1 -2
1 2 0 1 -1
1 2 0 1 0
1 2 0 1 1
1 2 0 2 -1
1 2 0 2 0
1 2 1 -2 -2
1 2 1 -2 -1
1 2 1 -2 0
1 2 1 -2 1
1 2 1 -1 -2
1 2 1 -1 -1
1 2 1 -1 0
1 2 1 -1 1
1 2 1 -1 2
1 2 1 0 -2
1 2 1 0 -1
1 2 1 0 0
1 2 1 0 1
1 2 1 0 2
1 2 1 1 -2
1 2 1 1 -1
1 2 1 1 0
1 2 1 1 1
1 2 1 2 -1
1 2 1 2 0
1 2 2 -2 -1
1 2 2 -2 0
1 2 2 -1 -2
1 2 2 -1 -1
1 2 2 -1 0
1 2 2 -1 1
1 2 2 0 -2
1 2 2 0 -1
1 2 2 0 0
1 2 2 0 1
1 2 2 1 -1
1 2 2 1 0
1 3 -2 -2 -1
1 3 -2 -2 0
1 3 -2 -1 -2
1 3 -2 -1 -1
1 3 -2 -1 0
1 3 -2 -1 1
1 3 -2 0 -2
1 3 -2 0 -1
1 3 -2 0 0
1 3 -2 0 1
1 3 -2 1 -2
1 3 -2 1 -1
1 3 -2 1 0
1 3 -2 1 1
1 3 -2 2 -1
1 3 -2 2 0
1 3 -1 -2 -2
1 3 -1 -2 -1
1 3 -1 -2 0
1 3 -1 -2 1
1 3 -1 -1 -2
1 3 -1 -1 -1
1 3 -1 -1 0
1 3 -1 -1 1
1 3 -1 -1 2
1 3 -1 0 -2
1 3 -1 0 -1
1 3 -1 0 0
1 3 -1 0 1
1 3 -1 0 2
1 3 -1 1 -2
1 3 -1 1 -1
1 3 -1 1 0
1 3 -1 1 1
1 3 -1 1 2
1 3 -1 2 -2
1 3 -1 2 -1
1 3 -1 2 0
1 3 -1 2 1
1 3 0 -2 -2
1 3 0 -2 -1
1 3 0 -2 0
1 3 0 -2 1
1 3 0 -1 -2
1 3 0 -1 -1
1 3 0 -1 0
1 3 0 -1 1
1 3 0 -1 2
1 3 0 0 -2
1 3 0 0 -1
1 3 0 0 0
1 3 0 0 1
1 3 0 0 2
1 3 0 1 -2
1 3 0 1 -1
1 3 0 1 0
1 3 0 1 1
1 3 0 1 2
1 3 0 2 -2
1 3 0 2 -1
1 3 0 2 0
1 3 0 2 1
1 3 1 -2 -1
1 3 1 -2 0
1 3 1 -1 -2
1 3 1 -1 -1
1 3 1 -1 0
1 3 1 -1 1
1 3 1 0 -2
1 3 1 0 -1
1 3 1 0 0
1 3 1 0 1
1 3 1 1 -2
1 3 1 1 -1
1 3 1 1 0
1 3 1 1 1
1 3 1 2 -1
1 3 1 2 0
1 3 2 -1 -1
1 3 2 -1 0
1 3 2 0 -1
1 3 2 0 0
1 3 2 1 -1
1 3 2 1 0
1 4 -2 -2 -1
1 4 -2 -2 0
1 4 -2 -2 1
1 4 -2 -1 -2
1 4 -2 -1 -1
1 4 -2 -1 0
1 4 -2 -1 1
1 4 -2 -1 2
1 4 -2 0 -2
1 4 -2 0 -1
1 4 -2 0 0
1 4 -2 0 1
1 4 -2 0 2
1 4 -2 1 -1
1 4 -2 1 0
1 4 -2 1 1
1 4 -1 -2 -2
1 4 -1 -2 -1
1 4 -1 -2 0
1 4 -1 -2 1
1 4 -1 -2 2
1 4 -1 -1 -2
1 4 -1 -1 -1
1 4 -1 -1 0
1 4 -1 -1 1
1 4 -1 -1 2
1 4 -1 0 -2
1 4 -1 0 -1
1 4 -1 0 0
1 4 -1 0 1
1 4 -1 0 2
1 4 -1 1 -2
1 4 -1 1 -1
1 4 -1 1 0
1 4 -1 1 1
1 4 -1 1 2
1 4 -1 2 -1
1 4 -1 2 0
1 4 -1 2 1
1 4 0 -2 -2
1 4 0 -2 -1
1 4 0 -2 0
1 4 0 -2 1
1 4 0 -2 2
1 4 0 -1 -2
1 4 0 -1 -1
1 4 0 -1 0
1 4 0 -1 1
1 4 0 -1 2
1 4 0 0 -2
1 4 0 0 -1
1 4 0 0 0
1 4 0 0 1
1 4 0 0 2
1 4 0 1 -2
1 4 0 1 -1
1 4 0 1 0
1 4 0 1 1
1 4 0 1 2
1 4 0 2 -1
1 4 0 2 0
1 4 0 2 1
1 4 1 -2 -1
1 4 1 -2 0
1 4 1 -2 1
1 4 1 -1 -2
1 4 1 -1 -1
1 4 1 -1 0
1 4 1 -1 1
1 4 1 -1 2
1 4 1 0 -2
1 4 1 0 -1
1 4 1 0 0
1 4 1 0 1
1 4 1 0 2
1 4 1 1 -1
1 4 1 1 0
1 4 1 1 1
1 4 2 -1 -1
1 4 2 -1 0
1 4 2 -1 1
1 4 2 0 -1
1 4 2 0 0
1 4 2 0 1
2 2 -2 -2 0
2 2 -2 -1 -1
2 2 -2 -1 0
2 2 -2 -1 1
2 2 -2 0 -2
2 2 -2 0 -1
2 2 -2 0 0
2 2 -2 0 1
2 2 -2 0 2
2 2 -2 1 -1
2 2 -2 1 0
2 2 -2 1 1
2 2 -2 2 0
2 2 -1 -2 -1
2 2 -1 -2 0
2 2 -1 -2 1
2 2 -1 -1 -2
2 2 -1 -1 -1
2 2 -1 -1 0
2 2 -1 -1 1
2 2 -1 -1 2
2 2 -1 0 -2
2 2 -1 0 -1
2 2 -1 0 0
2 2 -1 0 1
2 2 -1 0 2
2 2 -1 1 -2
2 2 -1 1 -1
2 2 -1 1 0
2 2 -1 1 1
2 2 -1 1 2
2 2 -1 2 -1
2 2 -1 2 0
2 2 -1 2 1
2 2 0 -2 -2
2 2 0 -2 -1
2 2 0 -2 0
2 2 0 -2 1
2 2 0 -2 2
2 2 0 -1 -2
2 2 0 -1 -1
2 2 0 -1 0
2 2 0 -1 1
2 2 0 -1 2
2 2 0 0 -2
2 2 0 0 -1
2 3 -2 -1 -1
2 3 -2 -1 0
2 3 -2 -1 1
2 3 -2 0 -2
2 3 -2 0 -1
2 3 -2 0 0
2 3 -2 0 1
2 3 -2 0 2
2 3 -2 1 -2
2 3 -2 1 -1
2 3 -2 1 0
2 3 -2 1 1
2 3 -2 1 2
2 3 -2 2 -1
2 3 -2 2 0
2 3 -2 2 1
2 3 -1 -2 -1
2 3 -1 -2 0
2 3 -1 -2 1
2 3 -1 -1 -2
2 3 -1 -1 -1
2 3 -1 -1 0
2 3 -1 -1 1
2 3 -1 -1 2
2 3 -1 0 -2
2 3 -1 0 -1
2 3 -1 0 0
2 3 -1 0 1
2 3 -1 0 2
2 3 -1 1 -2
2 3 -1 1 -1
2 3 -1 1 0
2 3 -1 1 1
2 3 -1 1 2
2 3 -1 2 -2
2 3 -1 2 -1
2 3 -1 2 0
2 3 -1 2 1
2 3 -1 2 2
2 3 0 -2 -1
2 3 0 -2 0
2 3 0 -2 1
2 3 0 -1 -2
2 3 0 -1 -1
2 3 0 -1 0
2 3 0 -1 1
2 3 0 -1 2
2 3 0 0 -2
2 3 0 0 -1
2 3 0 0 0
2 3 0 0 1
2 3 0 0 2
2 3 0 1 -2
2 3 0 1 -1
2 3 0 1 0
2 3 0 1 1
2 3 0 1 2
2 3 0 2 -2
2 3 0 2 -1
2 3 0 2 0
2 3 0 2 1
2 3 0 2 2
2 3 1 -1 -1
2 3 1 -1 0
2 3 1 -1 1
2 3 1 0 -2
2 3 1 0 -1
2 3 1 0 0
2 3 1 0 1
2 3 1 0 2
2 3 1 1 -2
2 3 1 1 -1
2 3 1 1 0
2 3 1 1 1
2 3 1 1 2
2 3 1 2 -1
2 3 1 2 0
2 3 1 2 1
2 3 2 0 -1
2 3 2 0 0
2 3 2 0 1
2 3 2 1 -1
2 3 2 1 0
2 3 2 1 1
2 4 -2 -2 0
2 4 -2 -2 1
2 4 -2 -1 -1
2 4 -2 -1 0
2 4 -2 -1 1
2 4 -2 -1 2
2 4 -2 0 -1
2 4 -2 0 0
2 4 -2 0 1
2 4 -2 0 2
2 4 -2 1 -1
2 4 -2 1 0
2 4 -2 1 1
2 4 -2 1 2
2 4 -2 2 0
2 4 -2 2 1
2 4 -1 -2 -1
2 4 -1 -2 0
2 4 -1 -2 1
2 4 -1 -2 2
2 4 -1 -1 -2
2 4 -1 -1 -1
2 4 -1 -1 0
2 4 -1 -1 1
2 4 -1 -1 2
2 4 -1 0 -2
2 4 -1 0 -1
2 4 -1 0 0
2 4 -1 0 1
2 4 -1 0 2
2 4 -1 1 -2
2 4 -1 1 -1
2 4 -1 1 0
2 4 -1 1 1
2 4 -1 1 2
2 4 -1 2 -1
2 4 -1 2 0
2 4 -1 2 1
2 4 -1 2 2
2 4 0 -2 -1
2 4 0 -2 0
2 4 0 -2 1
2 4 0 -2 2
2 4 0 -1 -2
2 4 0 -1 -1
2 4 0 -1 0
2 4 0 -1 1
2 4 0 -1 2
2 4 0 0 -2
2 4 0 0 -1
2 4 0 0 0
2 4 0 0 1
2 4 0 0 2
2 4 0 1 -2
2 4 0 1 -1
2 4 0 1 0
2 4 0 1 1
2 4 0 1 2
2 4 0 2 -1
2 4 0 2 0
2 4 0 2 1
2 4 0 2 2
2 4 1 -2 0
2 4 1 -2 1
2 4 1 -1 -1
2 4 1 -1 0
2 4 1 -1 1
2 4 1 -1 2
2 4 1 0 -1
2 4 1 0 0
2 4 1 0 1
2 4 1 0 2
2 4 1 1 -1
2 4 1 1 0
2 4 1 1 1
2 4 1 1 2
2 4 1 2 0
2 4 1 2 1
2 4 2 -1 0
2 4 2 -1 1
2 4 2 0 0
2 4 2 0 1
2 4 2 1 0
2 4 2 1 1
3 3 -2 -2 0
3 3 -2 -1 -1
3 3 -2 -1 0
3 3 -2 -1 1
3 3 -2 0 -2
3 3 -2 0 -1
3 3 -2 0 0
3 3 -2 0 1
3 3 -2 0 2
3 3 -2 1 -1
3 3 -2 1 0
3 3 -2 1 1
3 3 -2 2 0
3 3 -1 -2 -1
3 3 -1 -2 0
3 3 -1 -2 1
3 3 -1 -1 -2
3 3 -1 -1 -1
3 3 -1 -1 0
3 3 -1 -1 1
3 3 -1 -1 2
3 3 -1 0 -2
3 3 -1 0 -1
3 3 -1 0 0
3 3 -1 0 1
3 3 -1 0 2
3 3 -1 1 -2
3 3 -1 1 -1
3 3 -1 1 0
3 3 -1 1 1
3 3 -1 1 2
3 3 -1 2 -1
3 3 -1 2 0
3 3 -1 2 1
3 3 0 -2 -2
3 3 0 -2 -1
3 3 0 -2 0
3 3 0 -2 1
3 3 0 -2 2
3 3 0 -1 -2
3 3 0 -1 -1
3 3 0 -1 0
3 3 0 -1 1
3 3 0 -1 2
3 3 0 0 -2
3 3 0 0 -1
3 4 -2 -2 0
3 4 -2 -2 1
3 4 -2 -1 -1
3 4 -2 -1 0
3 4 -2 -1 1
3 4 -2 -1 2
3 4 -2 0 -1
3 4 -2 0 0
3 4 -2 0 1
3 4 -2 0 2
3 4 -2 1 0
3 4 -2 1 1
3 4 -1 -2 -1
3 4 -1 -2 0
3 4 -1 -2 1
3 4 -1 -2 2
3 4 -1 -1 -2
3 4 -1 -1 -1
3 4 -1 -1 0
3 4 -1 -1 1
3 4 -1 -1 2
3 4 -1 0 -2
3 4 -1 0 -1
3 4 -1 0 0
3 4 -1 0 1
3 4 -1 0 2
3 4 -1 1 -1
3 4 -1 1 0
3 4 -1 1 1
3 4 -1 1 2
3 4 -1 2 0
3 4 -1 2 1
3 4 0 -2 -1
3 4 0 -2 0
3 4 0 -2 1
3 4 0 -2 2
3 4 0 -1 -2
3 4 0 -1 -1
3 4 0 -1 0
3 4 0 -1 1
3 4 0 -1 2
3 4 0 0 -2
3 4 0 0 -1
3 4 0 0 0
3 4 0 0 1
3 4 0 0 2
3 4 0 1 -1
3 4 0 1 0
3 4 0 1 1
3 4 0 1 2
3 4 0 2 0
3 4 0 2 1
3 4 1 -2 -1
3 4 1 -2 0
3 4 1 -2 1
3 4 1 -2 2
3 4 1 -1 -2
3 4 1 -1 -1
3 4 1 -1 0
3 4 1 -1 1
3 4 1 -1 2
3 4 1 0 -2
3 4 1 0 -1
3 4 1 0 0
3 4 1 0 1
3 4 1 0 2
3 4 1 1 -1
3 4 1 1 0
3 4 1 1 1
3 4 1 1 2
3 4 1 2 0
3 4 1 2 1
3 4 2 -2 0
3 4 2 -2 1
3 4 2 -1 -1
3 4 2 -1 0
3 4 2 -1 1
3 4 2 -1 2
3 4 2 0 -1
3 4 2 0 0
3 4 2 0 1
3 4 2 0 2
3 4 2 1 0
3 4 2 1 1
4 4 -2 -2 0
4 4 -2 -1 -1
4 4 -2 -1 0
4 4 -2 -1 1
4 4 -2 0 -2
4 4 -2 0 -1
4 4 -2 0 0
4 4 -2 0 1
4 4 -2 0 2
4 4 -2 1 -1
4 4 -2 1 0
4 4 -2 1 1
4 4 -2 2 0
4 4 -1 -2 -1
4 4 -1 -2 0
4 4 -1 -2 1
4 4 -1 -1 -2
4 4 -1 -1 -1
4 4 -1 -1 0
4 4 -1 -1 1
4 4 -1 -1 2
4 4 -1 0 -2
4 4 -1 0 -1
4 4 -1 0 0
4 4 -1 0 1
4 4 -1 0 2
4 4 -1 1 -2
4 4 -1 1 -1
4 4 -1 1 0
4 4 -1 1 1
4 4 -1 1 2
4 4 -1 2 -1
4 4 -1 2 0
4 4 -1 2 1
4 4 0 -2 -2
4 4 0 -2 -1
4 4 0 -2 0
4 4 0 -2 1
4 4 0 -2 2
4 4 0 -1 -2
4 4 0 -1 -1
4 4 0 -1 0
4 4 0 -1 1
4 4 0 -1 2
4 4 0 0 -2
4 4 0 0 -1
ijpairs.cellid>
<ijpairs.nocellid
1 1
1 2
ijpairs.nocellid>
